c description: Random 6-CNF over 6 variables and 64 clauses
c generator: CNFgen (0.9.0)
c copyright: (C) 2012-2020 Massimo Lauria <massimo.lauria@uniroma1.it>
c url: https://massimolauria.net/cnfgen
c command line: cnfgen -o ./sat_database/no/medium/6/cnf.cnf randkcnf 6 6 64
c
p cnf 6 64
1 -2 3 -4 5 6 0
-1 2 -3 -4 -5 -6 0
1 -2 -3 -4 -5 6 0
1 -2 3 4 5 -6 0
1 2 -3 4 5 -6 0
-1 -2 -3 -4 -5 6 0
1 2 -3 -4 -5 -6 0
1 -2 3 4 5 6 0
1 -2 -3 -4 5 6 0
-1 2 3 -4 5 -6 0
-1 2 3 -4 -5 6 0
1 -2 3 4 -5 -6 0
-1 2 -3 4 -5 -6 0
-1 -2 3 -4 5 -6 0
1 2 3 4 5 6 0
-1 2 -3 -4 5 6 0
1 -2 -3 4 -5 -6 0
1 2 -3 4 5 6 0
-1 -2 3 4 5 -6 0
-1 2 3 -4 -5 -6 0
-1 -2 3 4 5 6 0
-1 2 -3 -4 5 -6 0
1 -2 3 -4 -5 -6 0
-1 -2 3 -4 5 6 0
-1 2 3 4 -5 6 0
-1 -2 3 -4 -5 6 0
-1 2 -3 4 5 6 0
1 2 3 -4 5 -6 0
-1 2 3 4 5 6 0
1 2 3 -4 -5 -6 0
-1 2 -3 4 -5 6 0
-1 2 3 4 5 -6 0
-1 2 3 4 -5 -6 0
-1 -2 -3 -4 5 -6 0
1 2 -3 -4 5 -6 0
1 2 3 -4 -5 6 0
-1 -2 3 4 -5 6 0
1 2 -3 4 -5 6 0
1 -2 -3 4 -5 6 0
-1 -2 -3 4 5 -6 0
1 2 -3 4 -5 -6 0
1 -2 3 -4 -5 6 0
-1 -2 -3 -4 5 6 0
-1 -2 3 -4 -5 -6 0
1 2 3 -4 5 6 0
-1 -2 -3 4 -5 6 0
-1 -2 -3 4 5 6 0
1 -2 3 -4 5 -6 0
1 -2 -3 4 5 -6 0
-1 -2 -3 -4 -5 -6 0
1 2 3 4 -5 -6 0
-1 -2 -3 4 -5 -6 0
1 2 3 4 5 -6 0
1 -2 -3 -4 5 -6 0
-1 2 -3 -4 -5 6 0
-1 -2 3 4 -5 -6 0
-1 2 -3 4 5 -6 0
1 2 -3 -4 5 6 0
1 -2 -3 4 5 6 0
1 2 -3 -4 -5 6 0
1 -2 3 4 -5 6 0
1 -2 -3 -4 -5 -6 0
-1 2 3 -4 5 6 0
1 2 3 4 -5 6 0
